c User generated cnf file
p cnf 7 26
4 -5 6 0 
4 -3 7 0 
3 7 -1 0 
1 -6 6 0 
3 6 -5 0 
7 7 -4 0 
5 7 -7 0 
5 7 -5 0 
7 4 -3 0 
2 6 -2 0 
5 2 -4 0 
5 -1 7 0 
3 -1 5 0 
6 6 -2 0 
1 7 -2 0 
3 3 -6 0 
4 -2 5 0 
3 5 -2 0 
1 -4 2 0 
6 -7 2 0 
2 -4 3 0 
7 4 -4 0 
1 -6 2 0 
7 -7 4 0 
4 -1 6 0 
3 -4 5 0 
